
Gurobi 9.1.1 (win64, Java) logging started Sat Apr 10 11:17:31 2021

Academic license - for non-commercial use only - expires 2021-04-30
Gurobi Optimizer version 9.1.1 build v9.1.1rc0 (win64)
Thread count: 2 physical cores, 4 logical processors, using up to 4 threads
Optimize a model with 2 rows, 3 columns and 5 nonzeros
Model fingerprint: 0x20fd6c50
Coefficient statistics:
  Matrix range     [1e+00, 3e+00]
  Objective range  [1e+00, 2e+00]
  Bounds range     [0e+00, 0e+00]
  RHS range        [1e+00, 4e+00]
Iteration    Objective       Primal Inf.    Dual Inf.      Time
       0   -0.0000000e+00   0.000000e+00   4.000000e+00      0s
       2    3.0000000e+00   0.000000e+00   0.000000e+00      0s

Solved in 2 iterations and 0.01 seconds
Optimal objective  3.000000000e+00
